Route #1: 64 25 183 136 167 123 52 71 177 148 141 98 84 153 180 61 32 40 18 185 70 76 126 54 151 137 77 73
Route #2: 37 184 139 72 133 156 129 108 103 34 4 128 163 110 66 171 13 120 172 63 57 188 19 105
Route #3: 102 10 43 58 28 138 85 104 89 2 38 22 36 39 30 150 147 97 78 80 169 112 168
Route #4: 95 143 24 12 86 125 176 5 47 101 146 186 87 152 41 181 174 48 56 8 100 62 179 21 68 35 142
Route #5: 31 144 69 55 59 96 9 114 65 20 53 154 189 140 124 187 27 15 3 90 42 130 6 109 159
Route #6: 131 118 99 45 149 1 88 44 127 165 160 182 83 29
Route #7: 14 16 170 166 157 173 132 134 161 74 111 23 164 158 178 50 94 115 145 81 92 135 46
Route #8: 106 119 49 26 117 175 11 122 82 116 60 79 17 155 7 162 33 107 91 113 121 75 93 51 67
